(set-logic QF_S)
(declare-fun var0 () String)
(assert (str.in.re var0 (re.++ (re.union (re.* (str.to.re "0")) (re.* (str.to.re "1"))) (re.++ (re.+ (re.+ (str.to.re "2"))) (re.++ (re.+ (re.* (str.to.re "33"))) (re.++ (re.union (re.* (str.to.re "44")) (re.* (str.to.re "555"))) (re.++ (re.* (re.+ (str.to.re "66"))) (re.++ (re.* (re.+ (str.to.re "7"))) (re.union (re.* (str.to.re "88")) (re.* (str.to.re "9")))))))))))
(check-sat)